
  32   50
  13    7    3    9   17   15   10    5   13   14    7   10   14   10    7    7   17    8    2   12   17    1   10   15   14   10    9   11   16   22   10    9    0    0    0    0    0    0    0    0    0    0    0    0    0    0    0    0    0    0

   0   0   0   0   0   0   0   0   0   0   0   0   0   0   0   0   0   0   0   0   0   0   0   0   0   0   0   0   0   0   0   0   0   0   0   0   0   0   0   0   0   0   0   0   0   0   0   0   0   0   0  10 2 3 4 6 7 8 9 10 12 24 
   4   0   0   0   0   0   0   0   5   0   3   0   0   0   0   0   0   0   5   0   0   0   0   0   0   0   0   7   0   0   7   0   0   0   0   0   0   0   0   0   0   0   0   0   0   0   0   0   0   0   0   8 29 23 21 19 18 17 16 11 
   5   0   0   0   0   0   0   0   1   0   0   0   5   0   0   0   0   4   0   0   7   0   0   0   0   0   3   0   0   0   0   0   0   0   0   0   0   0   0   0   0   0   0   0   0   0   0   0   0   0   0   6 31 20 16 15 14 13 
   4   0   0   0   0   0   0   0   0   0   0   0   5   0   0   0   0   0   0   0   0   0   0   0   0   0   0   0   0   3   0  10   0   0   0   0   0   0   0   0   0   0   0   0   0   0   0   0   0   0   0   2 17 5 
   5   0   0   3   0   0   0   0   0   0   0   0   0   5   0   0   0   0   0   0   0   0   0   3   0   7   0   0   0   0  10   0   0   0   0   0   0   0   0   0   0   0   0   0   0   0   0   0   0   0   0   6 30 29 28 20 14 13 
   4   0   0   0   0   0   0   0   0   0   0   0   0   0   0   0   0   0   0   0   0   0   0   0   0   0   0   0   0   1   3   0   0   0   0   0   0   0   0   0   0   0   0   0   0   0   0   0   0   0   0   8 31 30 28 27 22 19 18 17 
   2   2   0   0   0   0   0   0   0   0   0   0   1   0   0   0   0   0   4   0   0   0   0   0   0   0   0   0   0   9   8   0   0   0   0   0   0   0   0   0   0   0   0   0   0   0   0   0   0   0   0   6 31 29 27 20 17 16 
   3   0   0   0   0   0   7   0   0   0   0   7   0   0   3   0   0   0   0   0   0   0   0   0   5   3   0   0   0   0   0   0   0   0   0   0   0   0   0   0   0   0   0   0   0   0   0   0   0   0   0   4 30 21 16 13 
   6   0   0   0   6   0   6   0   0   2   0   0   0   0   0   0   0   3   1   0   0   0   0   0   0   0   0   0   0   0   5   0   0   0   0   0   0   0   0   0   0   0   0   0   0   0   0   0   0   0   0   7 31 30 29 28 27 26 21 
   5   5   0   0   1   0   0   8   0   0   0   0   3   0   0   0   0   0   0   0   0   0   0   0   0   0   0   0   0   0   0   0   0   0   0   0   0   0   0   0   0   0   0   0   0   0   0   0   0   0   0   5 29 28 27 20 18 
   4   0   0   0   4   0   0   0   0   0   0   0   0   0  10   1   2   0   0   2   0  10   0   0   0   8   0   0   5   3   4   0   0   0   0   0   0   0   0   0   0   0   0   0   0   0   0   0   0   0   0   5 31 30 27 25 20 
  10   0   0   0   0   0   7   0   0  10   0   0   0   3   0   0   2   0   0   0   0   0   0   0   0   0   0   0   0   0   6   0   0   0   0   0   0   0   0   0   0   0   0   0   0   0   0   0   0   0   0   5 30 27 21 19 18 
  10   0   0   0   0   0   0   0   0   0   0   0   0   0   0   0   0   0   0   0   0   0   0   0   0   0   0   0   0   0   0   0   0   0   0   0   0   0   0   0   0   0   0   0   0   0   0   0   0   0   0   3 27 26 18 
  10   0   0   0   0   9   0   0   0   0   0   0   0   8   0   0   0   0   0   0   0   8   0   0   9   0   0   0   0   0   0   0   0   0   0   0   0   0   0   0   0   0   0   0   0   0   0   0   0   0   0   3 27 19 18 
   6   0   0   0   0   3   0   0   0   0   0   0   0   0   0   0   0   0   0   0   0   0   0   0   2   0   7   0   3   0   0   0   6   0   0   0   0   0   0   0   0   0   0   0   0   0   0   0   0   0   0   3 29 26 19 
   7   0   0   0   0   0   0   0   0   0   0   0   0   0   0   0   0   0   0   0   2   3   0   0   0   3   0   0   0   0   0   0   0   0   0   0   0   0   0   0   0   0   0   0   0   0   0   0   0   0   0   2 28 25 
   8   0   0   0   0   6   0   0   0   0   7   0   0   0   0   0   0   0   0   0   3   0   0   0   0   0   0   0   0   0   0   0   0   0   0   0   0   0   0   0   0   0   0   0   0   0   0   0   0   0   0   2 26 25 
   7   0   0   0   0   0   0   0   0   9  10   0   0   0   0   0   0   0   0   0   0   0   0   0   0   0   0   0   0   0   0   0   0   0   0   0   0   0   0   0   0   0   0   0   0   0   0   0   0   0   0   1 25 
   3   0   0   0   0   3   0   0   0   0   0   0   0   6   6   0   0   0   0   0   0   0   0   0   0   0   8   1   0   0   1   0   0   0   0   0   0   0   0   0   0   0   0   0   0   0   0   0   0   0   0   1 25 
   1   0   0   0   0   4   0   0   0   0   0   0   0   0   8   0   0   0   0   0   8   6   0   1   0   0   0   0   0   0   0   0   0   0   0   0   0   0   0   0   0   0   0   0   0   0   0   0   0   0   0   1 26 
   1   0   0   0   0   0   0   0   0   0   0   0   0   0   0   0   0   0   1   2   0   1   0   0   0   0   0   0   0   0   0   0   0   0   0   0   0   0   0   0   0   0   0   0   0   0   0   0   0   0   0   1 25 
   1   0   0   0   0   9   0   4   0   0   0   0   0   0   0   0   0   0   0   0   5   0   0   0   0   0   0   0   0   0   0   0   0   0   0   0   0   0   0   0   0   0   0   0   0   0   0   0   0   0   0   1 26 
   2  10   0   0   0   0   0   0   0   4   8   0   0   0   0   1   0   9   0   0   0   0   0   0  10   0   0   0   4   0   0   0   0   0   0   0   0   0   0   0   0   0   0   0   0   0   0   0   0   0   0   1 25 
   9   0   7   0   0   5   0   0   0   0   0   0   0   0   0   0   0   6   0   0   0   0   0   0   6   0   0   0   0   7   0   0   0   0   0   0   0   0   0   0   0   0   0   0   0   0   0   0   0   0   0   1 25 
   8   0   0   0   0   8   3   5   0   0   0   6   0   0   0   0   7   0   0   0   0   0   0   0   0   0   0   9  10   0   0   0   9   0   0   0   0   0   0   0   0   0   0   0   0   0   0   0   0   0   0   1 32
   5   9   0   0   0   0   0   0   0   0   0   0   0   0   0   0   0   0   0   0   0   0   0   8   0   0   4   0   0   0   6   0   0   0   0   0   0   0   0   0   0   0   0   0   0   0   0   0   0   0   0   1 32
   6   0   0   0   0   0   0   0   0   0   7   0   0   0   0   0   7   0   7   0   0   0   0   0   0   0   0   0   0   0   0   0   0   0   0   0   0   0   0   0   0   0   0   0   0   0   0   0   0   0   0   1 32
   1   0   0   0   1   0   0   0   0   0   0   0   0   0   0   0   0   0   0   0   0   0   0   0   0   0   0   0   0   0   0   0   0   0   0   0   0   0   0   0   0   0   0   0   0   0   0   0   0   0   0   1 32
   4   0   0   0   0   0   0   0   0   0   0   0   0   0   0   6   0   0   0   1   0   6   0   0   0   0   0   0   0   0   0   0   0   0   0   0   0   0   0   0   0   0   0   0   0   0   0   0   0   0   0   1 32
   2   0   0   0   8   0   0   0   0   0   0   7   0   0   0   0   0   0   1   0   0   0   1  10   0   0   0   3   0   0   0   0   0   0   0   0   0   0   0   0   0   0   0   0   0   0   0   0   0   0   0   1 32
   8   0   0   0   0   0   0   0   0   0   0   0   0   7   0   3   0   0   0   0   0   5   0   0   0   0   0   0   0   0   0   0   0   0   0   0   0   0   0   0   0   0   0   0   0   0   0   0   0   0   0   1 32
   0   0   0   0   0   0   0   0   0   0   0   0   0   0   0   0   0   0   0   0   0   0   0   0   0   0   0   0   0   0   0   0   0   0   0   0   0   0   0   0   0   0   0   0   0   0   0   0   0   0   0   0 
